# SADDLE/HF/6-31G

0 1
O        0.058896587     -0.515624207      0.183417788
C        0.051559321      0.525197941      0.624295271
H       -0.099093946      0.525958950      2.247312447
H       -0.169901456      1.445749744      1.451829126
Option
GauProc=8
GauMem=1000
SADDLE+IRC
end
