# SADDLE/HF/6-31G

0 1
O       -1.099317925      0.000000000     -0.397362000
H       -1.055133186      0.770033857      0.183116687
H       -1.143502664     -0.770033857     -0.977840687
Options
GauProc=4
GauMem=100
SADDLE+IRC

